\ This file has been generated by DOcplex
\ ENCODING=ISO-8859-1
\Problem name: random_problem.lp

Minimize
 obj: 560 x0 + 280 x1 + 140 x2 - 1344 x3 - 672 x4 - 336 x5 + [ 4288 x0^2
      + 4288 x0*x1 + 2144 x0*x2 + 9472 x0*x3 + 4736 x0*x4 + 2368 x0*x5
      + 1072 x1^2 + 1072 x1*x2 + 4736 x1*x3 + 2368 x1*x4 + 1184 x1*x5 + 268 x2^2
      + 2368 x2*x3 + 1184 x2*x4 + 592 x2*x5 + 8384 x3^2 + 8384 x3*x4
      + 4192 x3*x5 + 2096 x4^2 + 2096 x4*x5 + 524 x5^2 ]/2
Subject To
 c0: 4 x0 + 2 x1 + x2 + 4 x3 + 2 x4 + x5 = 7

Bounds
 0 <= x0 <= 1
 0 <= x1 <= 1
 0 <= x2 <= 1
 0 <= x3 <= 1
 0 <= x4 <= 1
 0 <= x5 <= 1

Binaries
 x0 x1 x2 x3 x4 x5
End
